p edge 47 236
e 1 2 1
e 1 4 1
e 1 7 1
e 1 9 1
e 1 13 1
e 1 15 1
e 1 18 1
e 1 20 1
e 1 25 1
e 1 27 1
e 1 30 1
e 1 32 1
e 1 36 1
e 1 38 1
e 1 41 1
e 1 43 1
e 2 3 1
e 2 6 1
e 2 8 1
e 2 12 1
e 2 14 1
e 2 17 1
e 2 19 1
e 2 24 1
e 2 26 1
e 2 29 1
e 2 31 1
e 2 35 1
e 2 37 1
e 2 40 1
e 2 42 1
e 3 5 1
e 3 7 1
e 3 10 1
e 3 13 1
e 3 16 1
e 3 18 1
e 3 21 1
e 3 25 1
e 3 28 1
e 3 30 1
e 3 33 1
e 3 36 1
e 3 39 1
e 3 41 1
e 3 44 1
e 4 5 1
e 4 6 1
e 4 10 1
e 4 12 1
e 4 16 1
e 4 17 1
e 4 21 1
e 4 24 1
e 4 28 1
e 4 29 1
e 4 33 1
e 4 35 1
e 4 39 1
e 4 40 1
e 4 44 1
e 5 8 1
e 5 9 1
e 5 14 1
e 5 15 1
e 5 19 1
e 5 20 1
e 5 26 1
e 5 27 1
e 5 31 1
e 5 32 1
e 5 37 1
e 5 38 1
e 5 42 1
e 5 43 1
e 6 11 1
e 6 13 1
e 6 15 1
e 6 22 1
e 6 25 1
e 6 27 1
e 6 34 1
e 6 36 1
e 6 38 1
e 6 45 1
e 7 11 1
e 7 12 1
e 7 14 1
e 7 22 1
e 7 24 1
e 7 26 1
e 7 34 1
e 7 35 1
e 7 37 1
e 7 45 1
e 8 11 1
e 8 13 1
e 8 16 1
e 8 22 1
e 8 25 1
e 8 28 1
e 8 34 1
e 8 36 1
e 8 39 1
e 8 45 1
e 9 11 1
e 9 12 1
e 9 16 1
e 9 22 1
e 9 24 1
e 9 28 1
e 9 34 1
e 9 35 1
e 9 39 1
e 9 45 1
e 10 11 1
e 10 14 1
e 10 15 1
e 10 22 1
e 10 26 1
e 10 27 1
e 10 34 1
e 10 37 1
e 10 38 1
e 10 45 1
e 11 17 1
e 11 18 1
e 11 19 1
e 11 20 1
e 11 21 1
e 11 29 1
e 11 30 1
e 11 31 1
e 11 32 1
e 11 33 1
e 11 40 1
e 11 41 1
e 11 42 1
e 11 43 1
e 11 44 1
e 12 23 1
e 12 25 1
e 12 27 1
e 12 30 1
e 12 32 1
e 12 46 1
e 13 23 1
e 13 24 1
e 13 26 1
e 13 29 1
e 13 31 1
e 13 46 1
e 14 23 1
e 14 25 1
e 14 28 1
e 14 30 1
e 14 33 1
e 14 46 1
e 15 23 1
e 15 24 1
e 15 28 1
e 15 29 1
e 15 33 1
e 15 46 1
e 16 23 1
e 16 26 1
e 16 27 1
e 16 31 1
e 16 32 1
e 16 46 1
e 17 23 1
e 17 25 1
e 17 27 1
e 17 34 1
e 17 46 1
e 18 23 1
e 18 24 1
e 18 26 1
e 18 34 1
e 18 46 1
e 19 23 1
e 19 25 1
e 19 28 1
e 19 34 1
e 19 46 1
e 20 23 1
e 20 24 1
e 20 28 1
e 20 34 1
e 20 46 1
e 21 23 1
e 21 26 1
e 21 27 1
e 21 34 1
e 21 46 1
e 22 23 1
e 22 29 1
e 22 30 1
e 22 31 1
e 22 32 1
e 22 33 1
e 22 46 1
e 23 35 1
e 23 36 1
e 23 37 1
e 23 38 1
e 23 39 1
e 23 40 1
e 23 41 1
e 23 42 1
e 23 43 1
e 23 44 1
e 23 45 1
e 24 47 1
e 25 47 1
e 26 47 1
e 27 47 1
e 28 47 1
e 29 47 1
e 30 47 1
e 31 47 1
e 32 47 1
e 33 47 1
e 34 47 1
e 35 47 1
e 36 47 1
e 37 47 1
e 38 47 1
e 39 47 1
e 40 47 1
e 41 47 1
e 42 47 1
e 43 47 1
e 44 47 1
e 45 47 1
e 46 47 1